
Welcome to IBM(R) ILOG(R) CPLEX(R) Interactive Optimizer 22.1.1.0
  with Simplex, Mixed Integer & Barrier Optimizers
5725-A06 5725-A29 5724-Y48 5724-Y49 5724-Y54 5724-Y55 5655-Y21
Copyright IBM Corp. 1988, 2022.  All Rights Reserved.

Type 'help' for a list of available commands.
Type 'help' followed by a command name for more
information on commands.

CPLEX> Selected objective sense:  MINIMIZE
Selected objective  name:  00000000
Selected RHS        name:  RHS1
Selected bound      name:  BOUND
Problem 'ee.mps' read.
Read time = 0.03 sec. (3.17 ticks)
CPLEX> New value for time limit in seconds: 7200
CPLEX> New value for parallel optimization mode: -1
CPLEX> New value for default parallel thread count: 40
CPLEX> New value for mixed integer optimality gap tolerance: 1e-13
CPLEX> Version identifier: 22.1.1.0 | 2022-11-28 | 9160aff4d
CPXPARAM_Threads                                 40
CPXPARAM_Parallel                                -1
CPXPARAM_TimeLimit                               7200
CPXPARAM_MIP_Tolerances_MIPGap                   1e-13
Found incumbent of value 0.000000 after 0.00 sec. (0.31 ticks)
Tried aggregator 2 times.
MIP Presolve eliminated 181 rows and 2745 columns.
MIP Presolve modified 6090 coefficients.
Aggregator did 713 substitutions.
Reduced MIP has 3635 rows, 7835 columns, and 28930 nonzeros.
Reduced MIP has 7835 binaries, 0 generals, 0 SOSs, and 0 indicators.
Presolve time = 0.07 sec. (68.88 ticks)
Probing time = 0.03 sec. (5.32 ticks)
Tried aggregator 1 time.
Detecting symmetries...
Reduced MIP has 3635 rows, 7835 columns, and 28930 nonzeros.
Reduced MIP has 7835 binaries, 0 generals, 0 SOSs, and 0 indicators.
Presolve time = 0.03 sec. (21.98 ticks)
Probing time = 0.02 sec. (5.12 ticks)
Clique table members: 18781.
MIP emphasis: balance optimality and feasibility.
MIP search method: dynamic search.
Parallel mode: opportunistic, using up to 40 threads.
Root relaxation solution time = 0.10 sec. (89.61 ticks)

        Nodes                                         Cuts/
   Node  Left     Objective  IInf  Best Integer    Best Bound    ItCnt     Gap

*     0+    0                            0.0000  -1.54000e+13              --- 
*     0+    0                      -4.80000e+12  -1.54000e+13           220.83%
*     0+    0                      -6.00000e+12  -1.54000e+13           156.67%
*     0+    0                      -7.20000e+12  -1.54000e+13           113.89%
      0     0  -1.53900e+13    42  -7.20000e+12  -1.53900e+13     1912  113.75%
*     0+    0                      -1.53900e+13  -1.53900e+13             0.00%
      0     0  -1.53900e+13   162  -1.53900e+13      Cuts: 43     3850    0.00%
      0     0  -1.53900e+13   163  -1.53900e+13      Cuts: 55     4304    0.00%
      0    29        cutoff        -1.53900e+13  -1.53900e+13     9783    0.00%
Elapsed time = 2.46 sec. (1265.90 ticks, tree = 0.02 MB, solutions = 5)
    342    63        cutoff        -1.53900e+13  -1.53900e+13    28030    0.00%
   1334    94  -1.53900e+13    88  -1.53900e+13  -1.53900e+13    54397    0.00%
*  1451    95      integral     0  -1.53900e+13  -1.53900e+13    54594    0.00%
   1920   451  -1.53900e+13   110  -1.53900e+13  -1.53900e+13   137986    0.00%
   2385   386        cutoff        -1.53900e+13  -1.53900e+13   123426    0.00%
   3065   426        cutoff        -1.53900e+13  -1.53900e+13   136580    0.00%
   3875   536  -1.53900e+13    50  -1.53900e+13  -1.53900e+13   154269    0.00%
   4823  1343        cutoff        -1.53900e+13  -1.53900e+13   281147    0.00%
   5646  1155  -1.53900e+13   126  -1.53900e+13  -1.53900e+13   255869    0.00%
   6510  1158  -1.53900e+13   141  -1.53900e+13  -1.53900e+13   257566    0.00%
   9180  1395  -1.53900e+13    47  -1.53900e+13  -1.53900e+13   352825    0.00%
Elapsed time = 7.60 sec. (4367.46 ticks, tree = 20.12 MB, solutions = 34)
  11181  2254  -1.53900e+13   130  -1.53900e+13  -1.53900e+13   518424    0.00%
  11857  2762  -1.53900e+13   235  -1.53900e+13  -1.53900e+13   660473    0.00%

Performing restart 1

Repeating presolve.
Tried aggregator 2 times.
MIP Presolve eliminated 1578 rows and 3664 columns.
MIP Presolve added 10 rows and 0 columns.
MIP Presolve modified 2138 coefficients.
Aggregator did 479 substitutions.
Reduced MIP has 1575 rows, 3645 columns, and 12779 nonzeros.
Reduced MIP has 3645 binaries, 0 generals, 0 SOSs, and 0 indicators.
Presolve time = 0.05 sec. (42.58 ticks)
Tried aggregator 1 time.
MIP Presolve eliminated 15 rows and 15 columns.
Reduced MIP has 1560 rows, 3630 columns, and 12704 nonzeros.
Reduced MIP has 3630 binaries, 0 generals, 0 SOSs, and 0 indicators.
Presolve time = 0.02 sec. (13.69 ticks)
Represolve time = 0.19 sec. (90.51 ticks)
  11858     0  -1.53900e+13   235  -1.53900e+13      Cuts: 25   945028    0.00%
  11858     0  -1.53900e+13   279  -1.53900e+13      Cuts: 26   945228    0.00%
  11858     0  -1.53900e+13   265  -1.53900e+13      Cuts: 53   945390    0.00%
  11858     0  -1.53900e+13   274  -1.53900e+13      Cuts: 35   945566    0.00%
  11858     0  -1.53900e+13   353  -1.53900e+13      Cuts: 30   945709    0.00%
  11858     0  -1.53900e+13   383  -1.53900e+13      Cuts: 28   945859    0.00%
  11858     0  -1.53900e+13   421  -1.53900e+13      Cuts: 38   946159    0.00%
  11858     0  -1.53900e+13   375  -1.53900e+13      Cuts: 53   946378    0.00%
  11858     0  -1.53900e+13   422  -1.53900e+13      Cuts: 43   946592    0.00%
  11858     0  -1.53900e+13   429  -1.53900e+13      Cuts: 32   946734    0.00%
  11858     0  -1.53900e+13   454  -1.53900e+13      Cuts: 34   946878    0.00%
  11858     0  -1.53900e+13   398  -1.53900e+13      Cuts: 23   947005    0.00%
  11858     0  -1.53900e+13   384  -1.53900e+13      Cuts: 18   947110    0.00%
  11858     0  -1.53900e+13   362  -1.53900e+13      Cuts: 24   947281    0.00%
  11858     0  -1.53900e+13   403  -1.53900e+13      Cuts: 28   947351    0.00%
  11858     0  -1.53900e+13   436  -1.53900e+13      Cuts: 26   947526    0.00%
  11858     0  -1.53900e+13   401  -1.53900e+13      Cuts: 28   947722    0.00%
  11858     0  -1.53900e+13   457  -1.53900e+13      Cuts: 15   947805    0.00%
  11858    10        cutoff        -1.53900e+13  -1.53900e+13   953072    0.00%
  15663    72  -1.53900e+13    83  -1.53900e+13  -1.53900e+13   992056    0.00%
  20380   117        cutoff        -1.53900e+13  -1.53900e+13  1231623    0.00%
  24499   154  -1.53900e+13    79  -1.53900e+13  -1.53900e+13  1263994    0.00%
  27721    73  -1.53900e+13    48  -1.53900e+13  -1.53900e+13  1475531    0.00%

GUB cover cuts applied:  5
Clique cuts applied:  20
Cover cuts applied:  358
Flow cuts applied:  3
Mixed integer rounding cuts applied:  52
Zero-half cuts applied:  115
Lift and project cuts applied:  1
Gomory fractional cuts applied:  18

Root node processing (before b&c):
  Real time             =    1.45 sec. (1258.76 ticks)
Parallel b&c, 40 threads:
  Real time             =   19.01 sec. (11720.28 ticks)
  Sync time (average)   =    5.91 sec.
  Wait time (average)   =    0.09 sec.
                          ------------
Total (root+branch&cut) =   20.46 sec. (12979.04 ticks)

Solution pool: 34 solutions saved.

MIP - Integer optimal solution:  Objective = -1.5389999887e+13
Solution time =   20.59 sec.  Iterations = 1587766  Nodes = 27774
Deterministic time = 12979.07 ticks  (630.27 ticks/sec)

CPLEX> Solution 'p35' written to file 'ee.sol'.
CPLEX> 